(set-info :origin "SVCOMP13 benchmarks generated by Arie Gurfinkel")
(set-logic HORN)
(declare-fun cp-rel-bb7.loopexit (Real Real Real Real Real Real Real) Bool)
(declare-fun cp-rel-entry () Bool)
(declare-fun cp-rel-bb1 (Real Real) Bool)
(declare-fun cp-rel-__UFO__0 () Bool)
(declare-fun cp-rel-ERROR () Bool)
(declare-fun cp-rel-bb3 (Real Real Real Real) Bool)
(assert |cp-rel-entry|)
(assert (forall ((?A Real) (?B Real) (?C Bool) (?D Bool) (?E Real) )(let (($x300548 (= ?D (= ?E 0.0))))
(let (($x272686 (= ?C true)))
(let (($x853029 (= ?D true)))
(let (($x855480 (not $x853029)))
(let (($x430299 (and |cp-rel-entry| (>= ?B 10.0) (<= ?B 10.0) (>= ?A 10.0) (<= ?A 10.0) $x855480 $x272686 $x300548)))
(=> $x430299 (|cp-rel-bb1| ?A ?B))))))))
)
(assert (forall ((?A Real) (?B Real) (?C Real) (?D Real) (?E Bool) (?F Bool) (?G Bool) (?H Bool) (?I Real) (?J Real) (?K Real) (?L Real) (?M Bool) (?N Real) (?O Real) )(let (($x468530 (and ?F ?G ?H (<= ?I ?J) (>= ?I ?J) (<= ?K ?L) (>= ?K ?L))))
(let (($x225577 (not ?E)))
(let (($x548498 (or $x225577 ?G)))
(let (($x272686 (= ?M true)))
(let (($x534978 (not $x272686)))
(let (($x511163 (and (|cp-rel-bb1| ?A ?B) (= ?H (= ?N 0.0)) (= ?L (+ 1.0 ?B)) (= ?J (+ 1.0 ?A)) (>= ?D ?K) (<= ?D ?K) (>= ?C ?I) (<= ?C ?I) $x534978 (= ?E true) $x548498 (or $x225577 $x468530) (= ?M (= ?O 0.0)))))
(=> $x511163 (|cp-rel-bb1| ?C ?D)))))))))
)
(assert (forall ((?A Real) (?B Real) (?C Bool) (?D Real) (?E Real) (?F Real) (?G Real) (?H Bool) (?I Real) (?J Real) (?K Real) (?L Bool) (?M Bool) (?N Bool) (?O Bool) (?P Real) (?Q Real) (?R Real) (?S Real) (?T Bool) (?U Bool) (?V Real) )(let (($x194825 (and ?M ?N (not ?O) (<= ?P ?Q) (>= ?P ?Q) (<= ?R ?S) (>= ?R ?S))))
(let (($x225577 (not ?L)))
(let (($x548498 (or $x225577 ?N)))
(let (($x506293 (and ?L ?T ?U (<= ?D ?P) (>= ?D ?P) (<= ?F ?R) (>= ?F ?R))))
(let (($x401078 (= ?C true)))
(let (($x300548 (= ?U (= ?V 0.0))))
(let (($x537344 (and (|cp-rel-bb3| ?E ?G ?J ?K) $x300548 (= ?O (not (<= ?Q 0.0))) (= ?S (+ 2.0 ?K)) (= ?Q (+ 2.0 ?J)) (>= ?B ?F) (<= ?B ?F) (>= ?A ?D) (<= ?A ?D) (not (= ?H true)) $x401078 (or (not ?C) ?T) (or (not ?C) $x506293) $x548498 (or $x225577 $x194825) (= ?H (= ?I 0.0)))))
(=> $x537344 (|cp-rel-bb1| ?A ?B))))))))))
)
(assert (forall ((?A Real) (?B Real) (?C Bool) (?D Real) (?E Real) (?F Real) (?G Real) (?H Bool) (?I Real) (?J Bool) (?K Real) (?L Real) (?M Real) (?N Real) (?O Bool) (?P Bool) (?Q Real) (?R Real) (?S Real) (?T Real) (?U Bool) (?V Bool) (?W Bool) (?X Bool) (?Y Bool) (?Z Real) (?A1 Real) )(let (($x873702 (= ?H (= ?I 0.0))))
(let (($x526838 (or (not ?U) (and ?V ?W ?X))))
(let (($x638945 (or (not ?U) ?W)))
(let (($x900283 (and ?U ?Y (<= ?K 0.0) (>= ?K 0.0) (<= ?M ?Z) (>= ?M ?Z))))
(let (($x854058 (and ?J ?O ?P (<= ?D ?K) (>= ?D ?K) (<= ?F ?M) (>= ?F ?M))))
(let (($x648821 (not ?C)))
(let (($x149474 (= ?A1 (+ 1.0 ?T))))
(let (($x472998 (= ?Z (+ ?S (* (~ 1.0) ?R)))))
(let (($x56418 (= ?P (= ?Q 0.0))))
(let (($x296516 (and (|cp-rel-bb7.loopexit| ?E ?G ?R ?S ?L ?N ?T) $x56418 $x472998 (= ?X (= ?A1 ?L)) $x149474 (>= ?B ?F) (<= ?B ?F) (>= ?A ?D) (<= ?A ?D) (not (= ?H true)) (= ?C true) (or $x648821 ?O) (or $x648821 $x854058) (or (not ?J) ?Y) (or (not ?J) $x900283) $x638945 $x526838 $x873702)))
(=> $x296516 (|cp-rel-bb1| ?A ?B)))))))))))))
)
(assert (forall ((?A Real) (?B Real) (?C Bool) (?D Bool) (?E Real) (?F Real) (?G Real) (?H Real) (?I Real) )(let (($x258580 (and (|cp-rel-bb1| ?A ?B) (= ?F (+ 1.0 ?B)) (= ?E (+ 1.0 ?A)) (>= ?I ?F) (<= ?I ?F) (>= ?H ?E) (<= ?H ?E) (not (= ?D true)) (= ?C true) (= ?D (= ?G 0.0)))))
(=> $x258580 (|cp-rel-bb3| ?E ?F ?H ?I))))
)
(assert (forall ((?A Real) (?B Real) (?C Real) (?D Real) (?E Bool) (?F Bool) (?G Bool) (?H Bool) (?I Real) (?J Real) (?K Real) (?L Real) (?M Bool) (?N Real) (?O Real) (?P Real) )(let (($x102502 (and ?F ?G (not ?H) (<= ?I ?J) (>= ?I ?J) (<= ?K ?L) (>= ?K ?L))))
(let (($x187381 (not ?E)))
(let (($x292683 (or $x187381 ?G)))
(let (($x346607 (= ?E true)))
(let (($x566070 (and (|cp-rel-bb3| ?A ?B ?C ?D) (= ?H (not (<= ?J 0.0))) (= ?L (+ 2.0 ?D)) (= ?J (+ 2.0 ?C)) (>= ?P ?K) (<= ?P ?K) (>= ?O ?I) (<= ?O ?I) (not (= ?M true)) $x346607 $x292683 (or $x187381 $x102502) (= ?M (= ?N 0.0)))))
(=> $x566070 (|cp-rel-bb3| ?A ?B ?O ?P))))))))
)
(assert (forall ((?A Real) (?B Real) (?C Real) (?D Real) (?E Bool) (?F Real) (?G Real) (?H Real) (?I Real) (?J Bool) (?K Real) (?L Real) (?M Real) (?N Real) (?O Bool) (?P Bool) (?Q Bool) (?R Bool) (?S Bool) (?T Real) (?U Real) )(let (($x56418 (= ?J (= ?K 0.0))))
(let (($x526838 (or (not ?O) (and ?P ?Q ?R))))
(let (($x638945 (or (not ?O) ?Q)))
(let (($x607376 (and ?O ?S (<= ?F 0.0) (>= ?F 0.0) (<= ?H ?T) (>= ?H ?T))))
(let (($x149474 (= ?U (+ 1.0 ?N))))
(let (($x472998 (= ?T (+ ?M (* (~ 1.0) ?L)))))
(let (($x9913 (and (|cp-rel-bb7.loopexit| ?A ?B ?L ?M ?G ?I ?N) $x472998 (= ?R (= ?U ?G)) $x149474 (>= ?D ?H) (<= ?D ?H) (>= ?C ?F) (<= ?C ?F) (not (= ?J true)) (= ?E true) (or (not ?E) ?S) (or (not ?E) $x607376) $x638945 $x526838 $x56418)))
(=> $x9913 (|cp-rel-bb3| ?A ?B ?C ?D))))))))))
)
(assert (forall ((?A Real) (?B Real) (?C Real) (?D Real) (?E Bool) (?F Bool) (?G Real) (?H Real) (?I Real) (?J Bool) (?K Bool) )(let (($x853029 (= ?J true)))
(let (($x335888 (and (|cp-rel-bb3| ?A ?B ?C ?D) (= ?H (+ 2.0 ?D)) (= ?G (+ 2.0 ?C)) (>= ?I 0.0) (<= ?I 0.0) $x853029 (or (not ?J) ?K) (or (not ?J) (and ?E ?K ?F)) (= ?F (not (<= ?G 0.0))))))
(=> $x335888 (|cp-rel-bb7.loopexit| ?A ?B ?C ?D ?G ?H ?I)))))
)
(assert (forall ((?A Real) (?B Real) (?C Real) (?D Real) (?E Real) (?F Real) (?G Real) (?H Bool) (?I Bool) (?J Real) (?K Real) )(let (($x306449 (= ?H true)))
(let (($x272686 (= ?I true)))
(let (($x534978 (not $x272686)))
(let (($x530989 (and (|cp-rel-bb7.loopexit| ?A ?B ?E ?F ?C ?D ?G) (= ?J (+ 1.0 ?G)) (>= ?K ?J) (<= ?K ?J) $x534978 $x306449 (= ?I (= ?J ?C)))))
(=> $x530989 (|cp-rel-bb7.loopexit| ?A ?B ?E ?F ?C ?D ?K)))))))
)
(assert (forall ((?A Bool) (?B Bool) (?C Real) (?D Bool) (?E Bool) (?F Real) (?G Real) (?H Bool) )(let (($x222905 (= ?H (= ?F ?G))))
(let (($x559971 (and ?A ?E ?B (<= ?F 10.0) (>= ?F 10.0) (<= ?G 10.0) (>= ?G 10.0))))
(let (($x88145 (not ?D)))
(let (($x479172 (or $x88145 $x559971)))
(let (($x481521 (or $x88145 ?E)))
(let (($x322816 (= ?D true)))
(let (($x559596 (= ?H true)))
(let (($x338070 (= ?B (= ?C 0.0))))
(=> (and |cp-rel-entry| $x338070 $x559596 $x322816 $x481521 $x479172 $x222905) |cp-rel-__UFO__0|))))))))))
)
(assert (forall ((?A Real) (?B Real) (?C Bool) (?D Bool) (?E Bool) (?F Bool) (?G Real) (?H Real) (?I Real) (?J Real) (?K Bool) (?L Real) (?M Real) (?N Bool) (?O Real) (?P Real) (?Q Bool) (?R Bool) )(let (($x406797 (= ?Q (= ?O ?P))))
(let (($x585105 (and ?D ?E ?F (<= ?G ?H) (>= ?G ?H) (<= ?I ?J) (>= ?I ?J))))
(let (($x482677 (not ?C)))
(let (($x435382 (or $x482677 $x585105)))
(let (($x286666 (or $x482677 ?E)))
(let (($x396561 (and ?C ?R ?K (<= ?O ?G) (>= ?O ?G) (<= ?P ?I) (>= ?P ?I))))
(let (($x88145 (not ?N)))
(let (($x129695 (or $x88145 $x396561)))
(let (($x829597 (or $x88145 ?R)))
(let (($x322816 (= ?N true)))
(let (($x853029 (= ?Q true)))
(let (($x635778 (= ?H (+ 1.0 ?A))))
(let (($x799841 (= ?J (+ 1.0 ?B))))
(let (($x387948 (= ?F (= ?L 0.0))))
(let (($x719114 (= ?K (= ?M 0.0))))
(let (($x417149 (|cp-rel-bb1| ?A ?B)))
(=> (and $x417149 $x719114 $x387948 $x799841 $x635778 $x853029 $x322816 $x829597 $x129695 $x286666 $x435382 $x406797) |cp-rel-__UFO__0|))))))))))))))))))
)
(assert (forall ((?A Bool) (?B Real) (?C Real) (?D Real) (?E Real) (?F Bool) (?G Real) (?H Real) (?I Real) (?J Bool) (?K Bool) (?L Bool) (?M Bool) (?N Real) (?O Real) (?P Real) (?Q Real) (?R Bool) (?S Bool) (?T Real) (?U Bool) (?V Real) (?W Real) (?X Bool) (?Y Bool) )(let (($x406797 (= ?X (= ?V ?W))))
(let (($x626687 (and ?K ?L (not ?M) (<= ?N ?O) (>= ?N ?O) (<= ?P ?Q) (>= ?P ?Q))))
(let (($x482677 (not ?J)))
(let (($x846437 (or $x482677 $x626687)))
(let (($x286666 (or $x482677 ?L)))
(let (($x459740 (and ?J ?R ?S (<= ?B ?N) (>= ?B ?N) (<= ?D ?P) (>= ?D ?P))))
(let (($x648821 (not ?A)))
(let (($x174213 (or $x648821 $x459740)))
(let (($x311852 (or $x648821 ?R)))
(let (($x232024 (and ?A ?Y ?F (<= ?V ?B) (>= ?V ?B) (<= ?W ?D) (>= ?W ?D))))
(let (($x88145 (not ?U)))
(let (($x546343 (or $x88145 $x232024)))
(let (($x829597 (or $x88145 ?Y)))
(let (($x322816 (= ?U true)))
(let (($x853029 (= ?X true)))
(let (($x599348 (= ?O (+ 2.0 ?H))))
(let (($x135354 (= ?Q (+ 2.0 ?I))))
(let (($x233793 (= ?M (not (<= ?O 0.0)))))
(let (($x338070 (= ?S (= ?T 0.0))))
(let (($x873702 (= ?F (= ?G 0.0))))
(let (($x134327 (|cp-rel-bb3| ?C ?E ?H ?I)))
(let (($x121994 (and $x134327 $x873702 $x338070 $x233793 $x135354 $x599348 $x853029 $x322816 $x829597 $x546343 $x311852 $x174213 $x286666 $x846437 $x406797)))
(=> $x121994 |cp-rel-__UFO__0|))))))))))))))))))))))))
)
(assert (forall ((?A Bool) (?B Real) (?C Real) (?D Real) (?E Real) (?F Bool) (?G Real) (?H Bool) (?I Real) (?J Real) (?K Real) (?L Real) (?M Bool) (?N Bool) (?O Real) (?P Real) (?Q Real) (?R Real) (?S Bool) (?T Bool) (?U Bool) (?V Bool) (?W Bool) (?X Real) (?Y Real) (?Z Bool) (?A1 Real) (?B1 Real) (?C1 Bool) (?D1 Bool) )(let (($x406797 (= ?C1 (= ?A1 ?B1))))
(let (($x187381 (not ?S)))
(let (($x309101 (or $x187381 (and ?T ?U ?V))))
(let (($x292683 (or $x187381 ?U)))
(let (($x349366 (and ?S ?W (<= ?I 0.0) (>= ?I 0.0) (<= ?K ?X) (>= ?K ?X))))
(let (($x517441 (or (not ?H) $x349366)))
(let (($x390871 (or (not ?H) ?W)))
(let (($x554294 (and ?H ?M ?N (<= ?B ?I) (>= ?B ?I) (<= ?D ?K) (>= ?D ?K))))
(let (($x545978 (or (not ?A) $x554294)))
(let (($x518726 (or (not ?A) ?M)))
(let (($x249334 (and ?A ?D1 ?F (<= ?A1 ?B) (>= ?A1 ?B) (<= ?B1 ?D) (>= ?B1 ?D))))
(let (($x88145 (not ?Z)))
(let (($x265753 (or $x88145 $x249334)))
(let (($x829597 (or $x88145 ?D1)))
(let (($x322816 (= ?Z true)))
(let (($x853029 (= ?C1 true)))
(let (($x64942 (= ?Y (+ 1.0 ?R))))
(let (($x193710 (= ?V (= ?Y ?J))))
(let (($x99153 (= ?X (+ ?Q (* (~ 1.0) ?P)))))
(let (($x449003 (= ?N (= ?O 0.0))))
(let (($x312328 (= ?F (= ?G 0.0))))
(let (($x414526 (|cp-rel-bb7.loopexit| ?C ?E ?P ?Q ?J ?L ?R)))
(let (($x622391 (and $x414526 $x312328 $x449003 $x99153 $x193710 $x64942 $x853029 $x322816 $x829597 $x265753 $x518726 $x545978 $x390871 $x517441 $x292683 $x309101 $x406797)))
(=> $x622391 |cp-rel-__UFO__0|)))))))))))))))))))))))))
)
(assert (forall ((?A Bool) )(=> (and |cp-rel-__UFO__0| (= ?A true)) |cp-rel-__UFO__0|))
)
(assert (forall ((?A Bool) (?B Bool) (?C Real) (?D Bool) (?E Bool) (?F Real) (?G Real) (?H Bool) )(let (($x222905 (= ?H (= ?F ?G))))
(let (($x559971 (and ?A ?E ?B (<= ?F 10.0) (>= ?F 10.0) (<= ?G 10.0) (>= ?G 10.0))))
(let (($x88145 (not ?D)))
(let (($x479172 (or $x88145 $x559971)))
(let (($x481521 (or $x88145 ?E)))
(let (($x322816 (= ?D true)))
(let (($x338070 (= ?B (= ?C 0.0))))
(=> (and |cp-rel-entry| $x338070 (not (= ?H true)) $x322816 $x481521 $x479172 $x222905) |cp-rel-ERROR|)))))))))
)
(assert (forall ((?A Real) (?B Real) (?C Bool) (?D Bool) (?E Bool) (?F Bool) (?G Real) (?H Real) (?I Real) (?J Real) (?K Bool) (?L Real) (?M Real) (?N Bool) (?O Real) (?P Real) (?Q Bool) (?R Bool) )(let (($x406797 (= ?Q (= ?O ?P))))
(let (($x585105 (and ?D ?E ?F (<= ?G ?H) (>= ?G ?H) (<= ?I ?J) (>= ?I ?J))))
(let (($x482677 (not ?C)))
(let (($x435382 (or $x482677 $x585105)))
(let (($x286666 (or $x482677 ?E)))
(let (($x396561 (and ?C ?R ?K (<= ?O ?G) (>= ?O ?G) (<= ?P ?I) (>= ?P ?I))))
(let (($x88145 (not ?N)))
(let (($x129695 (or $x88145 $x396561)))
(let (($x829597 (or $x88145 ?R)))
(let (($x322816 (= ?N true)))
(let (($x853029 (= ?Q true)))
(let (($x855480 (not $x853029)))
(let (($x635778 (= ?H (+ 1.0 ?A))))
(let (($x799841 (= ?J (+ 1.0 ?B))))
(let (($x387948 (= ?F (= ?L 0.0))))
(let (($x719114 (= ?K (= ?M 0.0))))
(let (($x417149 (|cp-rel-bb1| ?A ?B)))
(=> (and $x417149 $x719114 $x387948 $x799841 $x635778 $x855480 $x322816 $x829597 $x129695 $x286666 $x435382 $x406797) |cp-rel-ERROR|)))))))))))))))))))
)
(assert (forall ((?A Bool) (?B Real) (?C Real) (?D Real) (?E Real) (?F Bool) (?G Real) (?H Real) (?I Real) (?J Bool) (?K Bool) (?L Bool) (?M Bool) (?N Real) (?O Real) (?P Real) (?Q Real) (?R Bool) (?S Bool) (?T Real) (?U Bool) (?V Real) (?W Real) (?X Bool) (?Y Bool) )(let (($x406797 (= ?X (= ?V ?W))))
(let (($x626687 (and ?K ?L (not ?M) (<= ?N ?O) (>= ?N ?O) (<= ?P ?Q) (>= ?P ?Q))))
(let (($x482677 (not ?J)))
(let (($x846437 (or $x482677 $x626687)))
(let (($x286666 (or $x482677 ?L)))
(let (($x459740 (and ?J ?R ?S (<= ?B ?N) (>= ?B ?N) (<= ?D ?P) (>= ?D ?P))))
(let (($x648821 (not ?A)))
(let (($x174213 (or $x648821 $x459740)))
(let (($x311852 (or $x648821 ?R)))
(let (($x232024 (and ?A ?Y ?F (<= ?V ?B) (>= ?V ?B) (<= ?W ?D) (>= ?W ?D))))
(let (($x88145 (not ?U)))
(let (($x546343 (or $x88145 $x232024)))
(let (($x829597 (or $x88145 ?Y)))
(let (($x322816 (= ?U true)))
(let (($x853029 (= ?X true)))
(let (($x855480 (not $x853029)))
(let (($x599348 (= ?O (+ 2.0 ?H))))
(let (($x135354 (= ?Q (+ 2.0 ?I))))
(let (($x233793 (= ?M (not (<= ?O 0.0)))))
(let (($x338070 (= ?S (= ?T 0.0))))
(let (($x873702 (= ?F (= ?G 0.0))))
(let (($x134327 (|cp-rel-bb3| ?C ?E ?H ?I)))
(let (($x525562 (and $x134327 $x873702 $x338070 $x233793 $x135354 $x599348 $x855480 $x322816 $x829597 $x546343 $x311852 $x174213 $x286666 $x846437 $x406797)))
(=> $x525562 |cp-rel-ERROR|)))))))))))))))))))))))))
)
(assert (forall ((?A Bool) (?B Real) (?C Real) (?D Real) (?E Real) (?F Bool) (?G Real) (?H Bool) (?I Real) (?J Real) (?K Real) (?L Real) (?M Bool) (?N Bool) (?O Real) (?P Real) (?Q Real) (?R Real) (?S Bool) (?T Bool) (?U Bool) (?V Bool) (?W Bool) (?X Real) (?Y Real) (?Z Bool) (?A1 Real) (?B1 Real) (?C1 Bool) (?D1 Bool) )(let (($x406797 (= ?C1 (= ?A1 ?B1))))
(let (($x187381 (not ?S)))
(let (($x309101 (or $x187381 (and ?T ?U ?V))))
(let (($x292683 (or $x187381 ?U)))
(let (($x349366 (and ?S ?W (<= ?I 0.0) (>= ?I 0.0) (<= ?K ?X) (>= ?K ?X))))
(let (($x517441 (or (not ?H) $x349366)))
(let (($x390871 (or (not ?H) ?W)))
(let (($x554294 (and ?H ?M ?N (<= ?B ?I) (>= ?B ?I) (<= ?D ?K) (>= ?D ?K))))
(let (($x545978 (or (not ?A) $x554294)))
(let (($x518726 (or (not ?A) ?M)))
(let (($x249334 (and ?A ?D1 ?F (<= ?A1 ?B) (>= ?A1 ?B) (<= ?B1 ?D) (>= ?B1 ?D))))
(let (($x88145 (not ?Z)))
(let (($x265753 (or $x88145 $x249334)))
(let (($x829597 (or $x88145 ?D1)))
(let (($x322816 (= ?Z true)))
(let (($x853029 (= ?C1 true)))
(let (($x855480 (not $x853029)))
(let (($x64942 (= ?Y (+ 1.0 ?R))))
(let (($x193710 (= ?V (= ?Y ?J))))
(let (($x99153 (= ?X (+ ?Q (* (~ 1.0) ?P)))))
(let (($x449003 (= ?N (= ?O 0.0))))
(let (($x312328 (= ?F (= ?G 0.0))))
(let (($x414526 (|cp-rel-bb7.loopexit| ?C ?E ?P ?Q ?J ?L ?R)))
(let (($x406921 (and $x414526 $x312328 $x449003 $x99153 $x193710 $x64942 $x855480 $x322816 $x829597 $x265753 $x518726 $x545978 $x390871 $x517441 $x292683 $x309101 $x406797)))
(=> $x406921 |cp-rel-ERROR|))))))))))))))))))))))))))
)
(assert (not cp-rel-ERROR))
(check-sat)
